db/data/289743987151003065517640267172167710891.z3.out
sat
-------------------
1761.783692868
